language Essence 1.3

letting class be function(1 --> 1, 2 --> 1, 3 --> 1, 4 --> 1, 5 --> 1, 6 --> 1, 7 --> 1, 8 --> 1)
letting deck_length be 16
letting deck_width be 36
letting length be function(1 --> 14, 2 --> 4, 3 --> 8, 4 --> 1, 5 --> 9, 6 --> 3, 7 --> 2, 8 --> 10)
letting n_classes be 1
letting n_containers be 8
letting separation be function()
letting width be function(1 --> 18, 2 --> 1, 3 --> 3, 4 --> 2, 5 --> 11, 6 --> 1, 7 --> 1, 8 --> 19)
